# Solution for model GasLib-40
# Objective value = 8.2584325743545165e+01
loadshed[innode_1] 0
loadshed[innode_2] 0
loadshed[innode_3] 0
loadshed[innode_4] 0
loadshed[innode_5] 0
loadshed[innode_6] 0
loadshed[innode_7] 0
loadshed[innode_8] 0
loadshed[source_1] 3.5115849847709435e-02
loadshed[source_2] 1.8292402745118319e-01
loadshed[source_3] 3.0434724798423651e-01
loadshed[sink_1] 3.1428267014863021e-01
loadshed[sink_2] 0
loadshed[sink_3] 0
loadshed[sink_4] 0
loadshed[sink_5] 8.0594843300516428e-01
loadshed[sink_6] 0
loadshed[sink_7] 0
loadshed[sink_8] 0
loadshed[sink_9] 0
loadshed[sink_10] 0
loadshed[sink_11] 0
loadshed[sink_12] 1
loadshed[sink_13] 0
loadshed[sink_14] 0
loadshed[sink_15] 0
loadshed[sink_16] 0
loadshed[sink_17] 1
loadshed[sink_18] 0
loadshed[sink_19] 0
loadshed[sink_20] 0
loadshed[sink_21] 1
loadshed[sink_22] 0
loadshed[sink_23] 0
loadshed[sink_24] 9.2951110791648273e-01
loadshed[sink_25] 0
loadshed[sink_26] 0
loadshed[sink_27] 0
loadshed[sink_28] 0
loadshed[sink_29] 0
flow[source_1,sink_3] 1.5253880332095065e+02
flow[innode_1,sink_16] 1.6354166666666970e+01
flow[innode_6,sink_13] 4.5032298636185111e+00
flow[sink_13,sink_14] -1.1850936803048157e+01
flow[sink_14,sink_10] -2.8205103469714825e+01
flow[sink_25,sink_26] 0
flow[sink_26,sink_9] 97.311507589783
flow[sink_9,sink_18] 8.0957340923116334e+01
flow[sink_26,sink_4] -1.1366567425644961e+02
flow[sink_4,sink_20] -1.3001984092311631e+02
flow[sink_18,sink_6] 6.4603174256449662e+01
flow[sink_25,innode_8] -1.1983046998761428e+02
flow[sink_6,sink_7] 2.0680505424505412e+01
flow[sink_6,sink_22] 2.7568502165277614e+01
flow[sink_7,sink_24] 1.1527870892825245e+00
flow[sink_22,sink_1] 1.1214335498610945e+01
flow[sink_24,sink_21] 0
flow[sink_21,sink_12] 0
flow[sink_7,sink_5] 3.1735516685562040e+00
flow[sink_5,sink_17] 0
flow[sink_17,sink_4] 0
flow[sink_17,sink_8] 0
flow[sink_3,sink_23] 16.3541666666697
flow[sink_8,sink_20] -1.6354166666668334e+01
flow[sink_25,sink_20] 1.6272817425645133e+02
flow[sink_25,sink_15] -6.3755100799122452e+01
flow[sink_15,sink_29] -4.6725439620624627e+01
flow[sink_29,sink_28] 1.6354166666667879e+01
flow[sink_29,sink_2] 4.9737994511831175e+01
flow[sink_2,sink_15] 3.3383827845164504e+01
flow[sink_29,innode_7] -1.2917176746579037e+02
flow[innode_4,sink_19] 4.2248609564200073e+01
flow[sink_19,innode_3] 3.7706264346845280e+01
flow[innode_4,innode_5] 6.7727327238847536e+01
flow[sink_27,innode_5] -6.7727327238847536e+01
flow[sink_27,sink_19] 5.1373160572180872e+01
flow[sink_10,sink_11] 3.2708333333333641e+01
flow[sink_10,innode_2] -3.9561339122869860e+01
flow[sink_10,innode_3] -3.7706264346845280e+01
flow[innode_6,sink_25] -4.5032298636185111e+00
flow[sink_11,innode_1] 1.6354166666666970e+01
flow[sink_19,innode_2] 3.9561339122869860e+01
flow[source_3,innode_4] 1.0997593680304760e+02
flow[source_2,innode_7] 1.2917176746579037e+02
flow[sink_3,innode_8] 1.1983046998761428e+02
pressure[innode_1] 7.7058969702554251e+01
pressure[innode_2] 7.9301651176483531e+01
pressure[innode_3] 7.9218154923858677e+01
pressure[innode_4] 81.01325
pressure[innode_5] 8.0966663573052088e+01
pressure[innode_6] 7.5880226512916337e+01
pressure[innode_7] 81.01325
pressure[innode_8] 8.0503371052433053e+01
pressure[source_1] 81.01325
pressure[source_2] 81.01325
pressure[source_3] 81.01325
pressure[sink_1] 1.0132500000000002e+00
pressure[sink_2] 7.6298491716391666e+01
pressure[sink_3] 8.0503371052433053e+01
pressure[sink_4] 2.7547467245101590e+01
pressure[sink_5] 1.0132499999996147e+00
pressure[sink_6] 2.6169993663558033e+00
pressure[sink_7] 2.3331053217414341e+00
pressure[sink_8] 3.5946671910898175e+01
pressure[sink_9] 7.2713743569029141e+00
pressure[sink_10] 77.2106710101578
pressure[sink_11] 7.7058969702554251e+01
pressure[sink_12] 1.01325
pressure[sink_13] 7.5855400959237826e+01
pressure[sink_14] 7.5876609220123484e+01
pressure[sink_15] 7.6189500876154355e+01
pressure[sink_16] 7.6037319867736571e+01
pressure[sink_17] 1.0132500000000002e+00
pressure[sink_18] 4.3420964679306309e+00
pressure[sink_19] 7.9301651176483531e+01
pressure[sink_20] 3.7086327334486462e+01
pressure[sink_21] 1.01325
pressure[sink_22] 1.7426949358739461e+00
pressure[sink_23] 8.0338653040773266e+01
pressure[sink_24] 1.01325
pressure[sink_25] 7.5880226512916337e+01
pressure[sink_26] 1.3095719240238910e+01
pressure[sink_27] 8.0404651903614123e+01
pressure[sink_28] 7.7263128976490592e+01
pressure[sink_29] 7.7558411250107781e+01
interdiction[source_1,sink_3] 0
interdiction[innode_1,sink_16] 0
interdiction[innode_6,sink_13] 0
interdiction[sink_13,sink_14] 0
interdiction[sink_14,sink_10] 0
interdiction[sink_25,sink_26] 1
interdiction[sink_26,sink_9] 0
interdiction[sink_9,sink_18] 0
interdiction[sink_26,sink_4] 0
interdiction[sink_4,sink_20] 0
interdiction[sink_18,sink_6] 0
interdiction[sink_25,innode_8] 0
interdiction[sink_6,sink_7] 0
interdiction[sink_6,sink_22] 0
interdiction[sink_7,sink_24] 0
interdiction[sink_22,sink_1] 0
interdiction[sink_24,sink_21] 0
interdiction[sink_21,sink_12] 0
interdiction[sink_7,sink_5] 0
interdiction[sink_5,sink_17] 0
interdiction[sink_17,sink_4] 1
interdiction[sink_17,sink_8] 1
interdiction[sink_3,sink_23] 0
interdiction[sink_8,sink_20] 0
interdiction[sink_25,sink_20] 0
interdiction[sink_25,sink_15] 0
interdiction[sink_15,sink_29] 0
interdiction[sink_29,sink_28] 0
interdiction[sink_29,sink_2] 0
interdiction[sink_2,sink_15] 0
interdiction[sink_29,innode_7] 0
interdiction[innode_4,sink_19] 0
interdiction[sink_19,innode_3] 0
interdiction[innode_4,innode_5] 0
interdiction[sink_27,innode_5] 0
interdiction[sink_27,sink_19] 0
interdiction[sink_10,sink_11] 0
interdiction[sink_10,innode_2] 0
interdiction[sink_10,innode_3] 0
interdiction[innode_6,sink_25] 0
interdiction[sink_11,innode_1] 0
interdiction[sink_19,innode_2] 0
interdiction[source_3,innode_4] 0
interdiction[source_2,innode_7] 0
interdiction[sink_3,innode_8] 0
WCcheckFlow[source_1,sink_3] 39
WCcheckFlow[innode_1,sink_16] 1
WCcheckFlow[innode_6,sink_13] 13
WCcheckFlow[sink_13,sink_14] 12
WCcheckFlow[sink_14,sink_10] 11
WCcheckFlow[sink_25,sink_26] 0
WCcheckFlow[sink_26,sink_9] 11
WCcheckFlow[sink_9,sink_18] 10
WCcheckFlow[sink_26,sink_4] -12
WCcheckFlow[sink_4,sink_20] -13
WCcheckFlow[sink_18,sink_6] 9
WCcheckFlow[sink_25,innode_8] -36
WCcheckFlow[sink_6,sink_7] 6
WCcheckFlow[sink_6,sink_22] 2
WCcheckFlow[sink_7,sink_24] 3
WCcheckFlow[sink_22,sink_1] 1
WCcheckFlow[sink_24,sink_21] 2
WCcheckFlow[sink_21,sink_12] 1
WCcheckFlow[sink_7,sink_5] 2
WCcheckFlow[sink_5,sink_17] 1
WCcheckFlow[sink_17,sink_4] 0
WCcheckFlow[sink_17,sink_8] 0
WCcheckFlow[sink_3,sink_23] 1
WCcheckFlow[sink_8,sink_20] -1
WCcheckFlow[sink_25,sink_20] 15
WCcheckFlow[sink_25,sink_15] 6
WCcheckFlow[sink_15,sink_29] 5
WCcheckFlow[sink_29,sink_28] 1
WCcheckFlow[sink_29,sink_2] 1
WCcheckFlow[sink_2,sink_15] 0
WCcheckFlow[sink_29,innode_7] 2
WCcheckFlow[innode_4,sink_19] -4
WCcheckFlow[sink_19,innode_3] -5
WCcheckFlow[innode_4,innode_5] 2
WCcheckFlow[sink_27,innode_5] -1
WCcheckFlow[sink_27,sink_19] 0
WCcheckFlow[sink_10,sink_11] 3
WCcheckFlow[sink_10,innode_2] 1
WCcheckFlow[sink_10,innode_3] 6
WCcheckFlow[innode_6,sink_25] -14
WCcheckFlow[sink_11,innode_1] 2
WCcheckFlow[sink_19,innode_2] 0
WCcheckFlow[source_3,innode_4] -1
WCcheckFlow[source_2,innode_7] -1
WCcheckFlow[sink_3,innode_8] 37
